* ENCODING=ISO-8859-1
NAME          CPLEX
ROWS
 N  obj1    
 G  c1      
 G  c2      
 G  c3      
 G  c4      
 G  c5      
 G  c6      
 G  c7      
 G  c8      
 G  c9      
 G  c10     
 G  c11     
 G  c12     
 G  c13     
 G  c14     
 G  c15     
 G  c16     
 G  c17     
 G  c18     
 G  c19     
 G  c20     
 G  c21     
 G  c22     
 G  c23     
 G  c24     
 G  c25     
COLUMNS
    MARK0000  'MARKER'                 'INTORG'
    x1        obj1                            1
    x1        c12                           423
    x1        c16                           144
    x2        obj1                            1
    x3        obj1                            1
    x3        c8                            243
    x3        c15                           790
    x3        c21                           321
    x4        obj1                            1
    x4        c4                            862
    x4        c7                            766
    x5        obj1                            1
    x5        c4                            407
    x5        c14                           994
    x5        c22                           473
    x6        obj1                            1
    x6        c3                            887
    x6        c19                           239
    x7        obj1                            1
    x7        c6                            391
    x7        c10                           275
    x7        c17                           137
    x7        c18                           513
    x7        c21                           193
    x8        obj1                            1
    x8        c12                           555
    x8        c14                           428
    x8        c15                           768
    x9        obj1                            1
    x10       obj1                            1
    x10       c10                           576
    x11       obj1                            1
    x11       c9                            831
    x11       c14                           891
    x11       c21                           928
    x12       obj1                            1
    x13       obj1                            1
    x13       c2                            778
    x13       c8                            445
    x13       c14                           647
    x13       c24                           838
    x14       obj1                            1
    x14       c12                           324
    x14       c14                           614
    x14       c16                           655
    x14       c17                           227
    x14       c18                           609
    x14       c19                           926
    x14       c20                           377
    x15       obj1                            1
    x15       c17                           513
    x15       c22                           790
    x16       obj1                            1
    x16       c4                            418
    x16       c11                           804
    x16       c16                           468
    x16       c17                           718
    x16       c20                           806
    x17       obj1                            1
    x17       c13                           330
    x17       c21                           934
    x18       obj1                            1
    x18       c14                           151
    x18       c23                           108
    x19       obj1                            1
    x20       obj1                            1
    x20       c1                            316
    x20       c10                           203
    x21       obj1                            1
    x21       c16                           808
    x21       c22                           852
    x22       obj1                            1
    x22       c7                            443
    x22       c18                           385
    x23       obj1                            1
    x23       c2                            789
    x23       c3                            441
    x23       c13                           304
    x23       c15                           154
    x23       c23                           425
    x23       c24                           100
    x24       obj1                            1
    x24       c18                           442
    x25       obj1                            1
    x25       c3                            922
    x25       c4                            839
    x25       c8                            660
    x26       obj1                            1
    x26       c9                            706
    x27       obj1                            1
    x27       c16                           510
    x28       obj1                            1
    x28       c2                            709
    x28       c17                           468
    x28       c22                           812
    x28       c25                           113
    x29       obj1                            1
    x29       c5                            924
    x29       c10                           402
    x29       c12                           261
    x29       c15                           893
    x30       obj1                            1
    x30       c4                            180
    x30       c11                           196
    x30       c15                           137
    x31       obj1                            1
    x31       c8                            180
    x31       c17                           901
    x32       obj1                            1
    x32       c1                            201
    x32       c3                            868
    x32       c5                            150
    x32       c18                           612
    x32       c23                           677
    x33       obj1                            1
    x33       c4                            992
    x33       c5                            426
    x33       c8                            412
    x33       c12                           909
    x33       c23                           356
    x34       obj1                            1
    x34       c13                           364
    x34       c15                           303
    x34       c18                           609
    x35       obj1                            1
    x35       c3                            538
    x35       c23                           253
    x35       c24                           894
    x36       obj1                            1
    x36       c24                           690
    x37       obj1                            1
    x38       obj1                            1
    x38       c3                            568
    x38       c7                            120
    x38       c9                            424
    x38       c24                           101
    x39       obj1                            1
    x39       c2                            828
    x39       c9                            116
    x39       c12                           745
    x39       c23                           594
    x40       obj1                            1
    x40       c2                            443
    x40       c19                           898
    x41       obj1                            1
    x41       c1                            871
    x41       c2                            449
    x41       c7                            343
    x41       c11                           714
    x42       obj1                            1
    x43       obj1                            1
    x43       c1                            323
    x43       c7                            768
    x43       c17                           791
    x44       obj1                            1
    x44       c2                            572
    x44       c6                            782
    x44       c18                           513
    x44       c25                           947
    x45       obj1                            1
    x45       c1                            828
    x45       c8                            199
    x45       c10                           770
    x46       obj1                            1
    x46       c1                            452
    x46       c20                           122
    x47       obj1                            1
    x47       c3                            606
    x47       c6                            304
    x48       obj1                            1
    x48       c20                           662
    x48       c25                           755
    x49       obj1                            1
    x49       c12                           263
    x49       c25                           322
    x50       obj1                            1
    x50       c7                            872
    x50       c25                           759
    MARK0001  'MARKER'                 'INTEND'
RHS
    rhs       c1                           1496
    rhs       c2                           2284
    rhs       c3                           2415
    rhs       c4                           1849
    rhs       c5                            750
    rhs       c6                            739
    rhs       c7                           1656
    rhs       c8                           1070
    rhs       c9                           1039
    rhs       c10                          1113
    rhs       c11                           857
    rhs       c12                          1740
    rhs       c13                           499
    rhs       c14                          1863
    rhs       c15                          1523
    rhs       c16                          1293
    rhs       c17                          1878
    rhs       c18                          1842
    rhs       c19                          1032
    rhs       c20                           984
    rhs       c21                          1188
    rhs       c22                          1464
    rhs       c23                          1207
    rhs       c24                          1312
    rhs       c25                          1448
BOUNDS
 LI bnd       x1        0
 LI bnd       x2        0
 LI bnd       x3        0
 LI bnd       x4        0
 LI bnd       x5        0
 LI bnd       x6        0
 LI bnd       x7        0
 LI bnd       x8        0
 LI bnd       x9        0
 LI bnd       x10       0
 LI bnd       x11       0
 LI bnd       x12       0
 LI bnd       x13       0
 LI bnd       x14       0
 LI bnd       x15       0
 LI bnd       x16       0
 LI bnd       x17       0
 LI bnd       x18       0
 LI bnd       x19       0
 LI bnd       x20       0
 LI bnd       x21       0
 LI bnd       x22       0
 LI bnd       x23       0
 LI bnd       x24       0
 LI bnd       x25       0
 LI bnd       x26       0
 LI bnd       x27       0
 LI bnd       x28       0
 LI bnd       x29       0
 LI bnd       x30       0
 LI bnd       x31       0
 LI bnd       x32       0
 LI bnd       x33       0
 LI bnd       x34       0
 LI bnd       x35       0
 LI bnd       x36       0
 LI bnd       x37       0
 LI bnd       x38       0
 LI bnd       x39       0
 LI bnd       x40       0
 LI bnd       x41       0
 LI bnd       x42       0
 LI bnd       x43       0
 LI bnd       x44       0
 LI bnd       x45       0
 LI bnd       x46       0
 LI bnd       x47       0
 LI bnd       x48       0
 LI bnd       x49       0
 LI bnd       x50       0
ENDATA
